4 10 100 1 2
0 200
 1 40.00 50.00 0.00 0.00 0.00 0 0 0 1236
 2 45.00 68.00 90.00 10.00 20.00 1 1 1 760 1120
 3 45.00 70.00 90.00 30.00 10.00 1 1 1 668 1028
 4 42.00 66.00 90.00 10.00 10.00 1 1 1 16 376
 5 42.00 68.00 90.00 10.00 10.00 1 1 1 575 935
 6 42.00 65.00 90.00 10.00 20.00 1 1 1 15 375
 7 40.00 69.00 90.00 20.00 30.00 1 1 1 482 842
 8 40.00 66.00 90.00 20.00 20.00 1 1 1 18 378
 9 38.00 68.00 90.00 20.00 10.00 1 1 1 110 470
 10 38.00 70.00 90.00 10.00 30.00 1 1 1 390 750
 11 35.00 66.00 90.00 10.00 10.00 1 1 1 204 564
 12 35.00 69.00 90.00 10.00 20.00 1 1 1 297 657
 13 25.00 85.00 90.00 20.00 10.00 1 1 1 507 867
 14 22.00 75.00 90.00 30.00 20.00 1 1 1 30 390
 15 22.00 85.00 90.00 10.00 10.00 1 1 1 414 774
 16 20.00 80.00 90.00 40.00 10.00 1 1 1 227 587
 17 20.00 85.00 90.00 40.00 20.00 1 1 1 322 682
 18 18.00 75.00 90.00 20.00 20.00 1 1 1 33 393
 19 15.00 75.00 90.00 20.00 10.00 1 1 1 37 397
 20 15.00 80.00 90.00 10.00 10.00 1 1 1 132 492
 21 30.00 50.00 90.00 10.00 10.00 1 1 1 10 370
 22 30.00 52.00 90.00 20.00 20.00 1 1 1 760 1120
 23 28.00 52.00 90.00 20.00 30.00 1 1 1 668 1028
 24 28.00 55.00 90.00 10.00 10.00 1 1 1 575 935
 25 25.00 50.00 90.00 10.00 40.00 1 1 1 15 375
 26 25.00 52.00 90.00 40.00 10.00 1 1 1 17 377
 27 25.00 55.00 90.00 10.00 10.00 1 1 1 482 842
 28 23.00 52.00 90.00 10.00 10.00 1 1 1 109 469
 29 23.00 55.00 90.00 20.00 20.00 1 1 1 390 750
 30 20.00 50.00 90.00 10.00 10.00 1 1 1 202 562
 31 20.00 55.00 90.00 10.00 30.00 1 1 1 297 657
 32 10.00 35.00 90.00 20.00 10.00 1 1 1 39 399
 33 10.00 40.00 90.00 30.00 30.00 1 1 1 31 391
 34 8.00 40.00 90.00 40.00 10.00 1 1 1 33 393
 35 8.00 45.00 90.00 20.00 10.00 1 1 1 604 964
 36 5.00 35.00 90.00 10.00 10.00 1 1 1 134 494
 37 5.00 45.00 90.00 10.00 10.00 1 1 1 511 871
 38 2.00 40.00 90.00 20.00 10.00 1 1 1 229 589
 39 0.00 40.00 90.00 30.00 20.00 1 1 1 321 681
 40 0.00 45.00 90.00 20.00 10.00 1 1 1 416 776
 41 35.00 30.00 90.00 10.00 40.00 1 1 1 113 473
 42 35.00 32.00 90.00 10.00 10.00 1 1 1 21 381
 43 33.00 32.00 90.00 20.00 40.00 1 1 1 19 379
 44 33.00 35.00 90.00 10.00 10.00 1 1 1 16 376
 45 32.00 30.00 90.00 10.00 30.00 1 1 1 206 566
 46 30.00 30.00 90.00 10.00 30.00 1 1 1 391 751
 47 30.00 32.00 90.00 30.00 30.00 1 1 1 299 659
 48 30.00 35.00 90.00 10.00 10.00 1 1 1 767 1127
 49 28.00 30.00 90.00 10.00 20.00 1 1 1 483 843
 50 28.00 35.00 90.00 10.00 10.00 1 1 1 766 1126
 51 26.00 32.00 90.00 10.00 10.00 1 1 1 668 1028
 52 25.00 30.00 90.00 10.00 10.00 1 1 1 576 936
 53 25.00 35.00 90.00 10.00 10.00 1 1 1 761 1121
 54 44.00 5.00 90.00 20.00 40.00 1 1 1 137 497
 55 42.00 10.00 90.00 40.00 10.00 1 1 1 42 402
 56 42.00 15.00 90.00 10.00 10.00 1 1 1 35 395
 57 40.00 5.00 90.00 30.00 10.00 1 1 1 231 591
 58 40.00 15.00 90.00 40.00 10.00 1 1 1 35 395
 59 38.00 5.00 90.00 30.00 30.00 1 1 1 323 683
 60 38.00 15.00 90.00 10.00 10.00 1 1 1 516 876
 61 35.00 5.00 90.00 20.00 40.00 1 1 1 416 776
 62 50.00 30.00 90.00 10.00 10.00 1 1 1 391 751
 63 50.00 35.00 90.00 20.00 30.00 1 1 1 110 470
 64 50.00 40.00 90.00 50.00 10.00 1 1 1 15 375
 65 48.00 30.00 90.00 10.00 10.00 1 1 1 483 843
 66 48.00 40.00 90.00 10.00 40.00 1 1 1 12 372
 67 47.00 35.00 90.00 10.00 20.00 1 1 1 671 1031
 68 47.00 40.00 90.00 10.00 10.00 1 1 1 12 372
 69 45.00 30.00 90.00 10.00 10.00 1 1 1 576 936
 70 45.00 35.00 90.00 10.00 20.00 1 1 1 763 1123
 71 95.00 30.00 90.00 30.00 20.00 1 1 1 242 602
 72 95.00 35.00 90.00 20.00 10.00 1 1 1 147 507
 73 53.00 30.00 90.00 10.00 10.00 1 1 1 298 658
 74 92.00 30.00 90.00 10.00 20.00 1 1 1 335 695
 75 53.00 35.00 90.00 50.00 20.00 1 1 1 203 563
 76 45.00 65.00 90.00 20.00 10.00 1 1 1 770 1130
 77 90.00 35.00 90.00 10.00 10.00 1 1 1 52 412
 78 88.00 30.00 90.00 10.00 30.00 1 1 1 429 789
 79 88.00 35.00 90.00 20.00 20.00 1 1 1 50 410
 80 87.00 30.00 90.00 10.00 20.00 1 1 1 520 880
 81 85.00 25.00 90.00 10.00 40.00 1 1 1 615 975
 82 85.00 35.00 90.00 30.00 20.00 1 1 1 47 407
 83 75.00 55.00 90.00 20.00 10.00 1 1 1 215 575
 84 72.00 55.00 90.00 10.00 30.00 1 1 1 122 482
 85 70.00 58.00 90.00 20.00 10.00 1 1 1 311 671
 86 68.00 60.00 90.00 30.00 20.00 1 1 1 404 764
 87 66.00 55.00 90.00 10.00 20.00 1 1 1 26 386
 88 65.00 55.00 90.00 20.00 10.00 1 1 1 25 385
 89 65.00 60.00 90.00 30.00 10.00 1 1 1 497 857
 90 63.00 58.00 90.00 10.00 20.00 1 1 1 590 950
 91 60.00 55.00 90.00 10.00 20.00 1 1 1 20 380
 92 60.00 60.00 90.00 10.00 10.00 1 1 1 683 1043
 93 67.00 85.00 90.00 20.00 50.00 1 1 1 225 585
 94 65.00 85.00 90.00 40.00 20.00 1 1 1 317 677
 95 65.00 82.00 90.00 10.00 10.00 1 1 1 131 491
 96 62.00 80.00 90.00 30.00 30.00 1 1 1 38 398
 97 60.00 80.00 90.00 10.00 20.00 1 1 1 36 396
 98 60.00 85.00 90.00 30.00 20.00 1 1 1 412 772
 99 58.00 75.00 90.00 20.00 10.00 1 1 1 30 390
 100 55.00 80.00 90.00 10.00 10.00 1 1 1 602 962
 101 55.00 85.00 90.00 20.00 50.00 1 1 1 507 867
